
  32    4
  10   10   10   10

   0   0   0   0   0  12 2 4 5 6 7 8 10 11 12 15 16 22 
   7   1   0   1   1   5 30 28 20 14 3 
   8   0   1   6   5   6 31 29 27 21 17 9 
   2   0   4   2   3   6 27 26 21 20 18 17 
   2   5   0   3   4   6 30 29 26 25 20 18 
   9  10   0   5   5   4 28 25 19 13 
   5   4   0   2   5   6 27 26 25 24 20 19 
   6   3   2   0   7   4 28 21 20 17 
   1   0   4   4   4   3 25 19 13 
   5   0   4   5   2   2 29 13 
   3   3   0   7   4   4 26 25 23 18 
   2   7   0   7   6   4 30 27 24 23 
   1   3   0   1   2   3 26 23 18 
  10   0   2   3   3   3 25 24 19 
   6   4   1   0   4   3 31 28 20 
   3   5   6   0   3   3 26 25 19 
   2   0   7   4   6   3 25 24 23 
   2   6   6   0   5   1 24 
  10   3   0   5   4   1 23 
   5   2   3   6   0   1 23 
   5   7   7   5   0   1 24 
   4   4   4   0   3   1 25 
   8   2   5   0   7   1 32
   3   2   0   5   4   1 32
   3   7   0   3   4   1 32
   8   3   5   0   5   1 32
   3   2   3   0   3   1 32
  10   4   2   0   2   1 32
   9   2   6   0   4   1 32
  10   3   0   4   1   1 32
   8   0   4   2   6   1 32
   0   0   0   0   0   0 
